p edge 922 892
e 1 2
e 1 3
e 1 4
e 1 5
e 1 6
e 1 7
e 1 8
e 1 9
e 1 10
e 1 11
e 1 12
e 1 13
e 1 14
e 1 15
e 1 16
e 1 17
e 1 18
e 1 19
e 1 20
e 1 21
e 1 22
e 1 23
e 1 24
e 1 25
e 1 26
e 1 27
e 1 28
e 1 29
e 1 30
e 1 31
e 1 32
e 1 33
e 1 34
e 1 35
e 1 36
e 1 37
e 1 38
e 1 39
e 1 40
e 1 41
e 1 42
e 1 43
e 1 44
e 1 45
e 1 46
e 1 47
e 1 48
e 1 49
e 1 50
e 1 51
e 52 53
e 52 54
e 52 55
e 52 56
e 52 57
e 52 58
e 52 59
e 52 60
e 52 61
e 52 62
e 52 63
e 52 64
e 52 65
e 52 66
e 52 67
e 52 68
e 52 69
e 52 70
e 52 71
e 52 72
e 52 73
e 52 74
e 52 75
e 52 76
e 52 77
e 52 78
e 52 79
e 52 80
e 52 81
e 52 82
e 52 83
e 84 85
e 84 86
e 84 87
e 84 88
e 84 89
e 84 90
e 84 91
e 84 92
e 84 93
e 84 94
e 84 95
e 96 97
e 96 98
e 96 99
e 96 100
e 96 101
e 96 102
e 96 103
e 96 104
e 96 105
e 96 106
e 96 107
e 96 108
e 96 109
e 96 110
e 96 111
e 96 112
e 96 113
e 96 114
e 96 115
e 96 116
e 96 117
e 96 118
e 96 119
e 96 120
e 96 121
e 96 122
e 96 123
e 96 124
e 96 125
e 96 126
e 96 127
e 96 128
e 96 129
e 96 130
e 96 131
e 96 132
e 96 133
e 96 134
e 96 135
e 96 136
e 96 137
e 96 138
e 96 139
e 140 141
e 140 142
e 140 143
e 140 144
e 140 145
e 140 146
e 140 147
e 140 148
e 140 149
e 140 150
e 140 151
e 140 152
e 140 153
e 140 154
e 140 155
e 140 156
e 140 157
e 140 158
e 140 159
e 140 160
e 140 161
e 140 162
e 140 163
e 140 164
e 140 165
e 140 166
e 167 168
e 167 169
e 167 170
e 167 171
e 167 172
e 167 173
e 167 174
e 167 175
e 167 176
e 167 177
e 167 178
e 167 179
e 167 180
e 167 181
e 167 182
e 167 183
e 167 184
e 167 185
e 167 186
e 167 187
e 167 188
e 167 189
e 167 190
e 167 191
e 167 192
e 167 193
e 167 194
e 167 195
e 167 196
e 167 197
e 167 198
e 167 199
e 167 200
e 167 201
e 167 202
e 167 203
e 167 204
e 167 205
e 167 206
e 167 207
e 208 209
e 208 210
e 208 211
e 208 212
e 208 213
e 208 214
e 208 215
e 208 216
e 208 217
e 208 218
e 208 219
e 208 220
e 208 221
e 208 222
e 208 223
e 208 224
e 208 225
e 208 226
e 208 227
e 208 228
e 208 229
e 208 230
e 208 231
e 208 232
e 208 233
e 208 234
e 208 235
e 208 236
e 208 237
e 238 239
e 238 240
e 238 241
e 238 242
e 238 243
e 238 244
e 238 245
e 238 246
e 238 247
e 238 248
e 238 249
e 238 250
e 238 251
e 238 252
e 238 253
e 238 254
e 238 255
e 238 256
e 238 257
e 238 258
e 238 259
e 238 260
e 238 261
e 238 262
e 238 263
e 238 264
e 238 265
e 238 266
e 238 267
e 238 268
e 238 269
e 238 270
e 238 271
e 238 272
e 238 273
e 238 274
e 238 275
e 238 276
e 277 278
e 277 279
e 277 280
e 277 281
e 277 282
e 277 283
e 277 284
e 277 285
e 277 286
e 277 287
e 277 288
e 277 289
e 277 290
e 277 291
e 277 292
e 277 293
e 277 294
e 277 295
e 277 296
e 277 297
e 277 298
e 277 299
e 277 300
e 277 301
e 277 302
e 277 303
e 277 304
e 277 305
e 277 306
e 277 307
e 277 308
e 277 309
e 277 310
e 277 311
e 277 312
e 277 313
e 277 314
e 277 315
e 277 316
e 277 317
e 277 318
e 277 319
e 277 320
e 277 321
e 277 322
e 277 323
e 277 324
e 277 325
e 326 327
e 326 328
e 326 329
e 326 330
e 326 331
e 326 332
e 326 333
e 326 334
e 326 335
e 326 336
e 326 337
e 326 338
e 326 339
e 326 340
e 326 341
e 326 342
e 326 343
e 326 344
e 326 345
e 326 346
e 326 347
e 326 348
e 326 349
e 326 350
e 326 351
e 326 352
e 326 353
e 326 354
e 326 355
e 326 356
e 326 357
e 326 358
e 326 359
e 326 360
e 361 362
e 361 363
e 361 364
e 361 365
e 361 366
e 361 367
e 361 368
e 361 369
e 361 370
e 361 371
e 361 372
e 361 373
e 361 374
e 361 375
e 361 376
e 361 377
e 361 378
e 361 379
e 361 380
e 361 381
e 361 382
e 361 383
e 361 384
e 361 385
e 361 386
e 361 387
e 388 389
e 388 390
e 388 391
e 388 392
e 388 393
e 388 394
e 388 395
e 388 396
e 388 397
e 388 398
e 388 399
e 388 400
e 388 401
e 388 402
e 388 403
e 388 404
e 388 405
e 388 406
e 388 407
e 388 408
e 388 409
e 388 410
e 388 411
e 388 412
e 388 413
e 388 414
e 388 415
e 388 416
e 388 417
e 418 419
e 418 420
e 418 421
e 418 422
e 418 423
e 418 424
e 418 425
e 418 426
e 418 427
e 418 428
e 418 429
e 418 430
e 418 431
e 418 432
e 418 433
e 418 434
e 418 435
e 436 437
e 436 438
e 436 439
e 436 440
e 436 441
e 436 442
e 436 443
e 436 444
e 436 445
e 436 446
e 436 447
e 436 448
e 436 449
e 436 450
e 436 451
e 436 452
e 436 453
e 436 454
e 436 455
e 456 457
e 456 458
e 456 459
e 456 460
e 456 461
e 456 462
e 456 463
e 456 464
e 456 465
e 456 466
e 456 467
e 456 468
e 456 469
e 456 470
e 456 471
e 456 472
e 456 473
e 456 474
e 456 475
e 476 477
e 476 478
e 476 479
e 476 480
e 476 481
e 476 482
e 476 483
e 476 484
e 476 485
e 476 486
e 476 487
e 476 488
e 476 489
e 476 490
e 476 491
e 476 492
e 476 493
e 476 494
e 476 495
e 476 496
e 476 497
e 476 498
e 476 499
e 476 500
e 476 501
e 476 502
e 476 503
e 476 504
e 476 505
e 506 507
e 506 508
e 506 509
e 506 510
e 506 511
e 506 512
e 506 513
e 506 514
e 506 515
e 506 516
e 506 517
e 506 518
e 506 519
e 506 520
e 506 521
e 506 522
e 506 523
e 506 524
e 506 525
e 506 526
e 506 527
e 506 528
e 506 529
e 530 531
e 530 532
e 530 533
e 530 534
e 530 535
e 530 536
e 530 537
e 530 538
e 530 539
e 530 540
e 530 541
e 530 542
e 530 543
e 530 544
e 530 545
e 546 547
e 546 548
e 546 549
e 546 550
e 546 551
e 546 552
e 546 553
e 546 554
e 546 555
e 546 556
e 546 557
e 546 558
e 546 559
e 546 560
e 546 561
e 546 562
e 546 563
e 546 564
e 546 565
e 546 566
e 546 567
e 546 568
e 546 569
e 546 570
e 546 571
e 546 572
e 546 573
e 546 574
e 546 575
e 546 576
e 546 577
e 546 578
e 579 580
e 579 581
e 579 582
e 579 583
e 579 584
e 579 585
e 579 586
e 579 587
e 579 588
e 579 589
e 579 590
e 579 591
e 579 592
e 579 593
e 579 594
e 579 595
e 579 596
e 579 597
e 579 598
e 579 599
e 579 600
e 601 602
e 601 603
e 601 604
e 601 605
e 601 606
e 601 607
e 601 608
e 601 609
e 601 610
e 601 611
e 601 612
e 601 613
e 601 614
e 601 615
e 601 616
e 601 617
e 601 618
e 601 619
e 601 620
e 601 621
e 601 622
e 601 623
e 601 624
e 601 625
e 601 626
e 601 627
e 601 628
e 601 629
e 601 630
e 601 631
e 601 632
e 601 633
e 601 634
e 601 635
e 601 636
e 601 637
e 601 638
e 601 639
e 601 640
e 601 641
e 601 642
e 601 643
e 601 644
e 601 645
e 601 646
e 601 647
e 601 648
e 601 649
e 601 650
e 601 651
e 652 653
e 652 654
e 652 655
e 652 656
e 652 657
e 652 658
e 652 659
e 652 660
e 652 661
e 652 662
e 663 664
e 663 665
e 663 666
e 663 667
e 663 668
e 663 669
e 663 670
e 663 671
e 663 672
e 663 673
e 663 674
e 663 675
e 663 676
e 663 677
e 663 678
e 663 679
e 663 680
e 663 681
e 663 682
e 663 683
e 663 684
e 663 685
e 663 686
e 663 687
e 663 688
e 663 689
e 663 690
e 663 691
e 663 692
e 663 693
e 663 694
e 663 695
e 663 696
e 663 697
e 663 698
e 663 699
e 663 700
e 663 701
e 663 702
e 703 704
e 703 705
e 703 706
e 703 707
e 703 708
e 703 709
e 703 710
e 703 711
e 703 712
e 703 713
e 703 714
e 703 715
e 703 716
e 703 717
e 703 718
e 703 719
e 703 720
e 703 721
e 703 722
e 703 723
e 703 724
e 703 725
e 703 726
e 703 727
e 703 728
e 703 729
e 703 730
e 703 731
e 703 732
e 703 733
e 703 734
e 703 735
e 703 736
e 703 737
e 703 738
e 703 739
e 703 740
e 703 741
e 703 742
e 703 743
e 703 744
e 703 745
e 703 746
e 747 748
e 747 749
e 747 750
e 747 751
e 747 752
e 747 753
e 747 754
e 747 755
e 747 756
e 747 757
e 747 758
e 747 759
e 747 760
e 747 761
e 747 762
e 747 763
e 747 764
e 747 765
e 747 766
e 747 767
e 747 768
e 747 769
e 770 771
e 770 772
e 770 773
e 770 774
e 770 775
e 770 776
e 770 777
e 770 778
e 770 779
e 770 780
e 770 781
e 770 782
e 770 783
e 770 784
e 770 785
e 770 786
e 770 787
e 770 788
e 770 789
e 770 790
e 770 791
e 770 792
e 770 793
e 770 794
e 770 795
e 796 797
e 796 798
e 796 799
e 796 800
e 796 801
e 796 802
e 796 803
e 796 804
e 796 805
e 796 806
e 796 807
e 796 808
e 796 809
e 796 810
e 796 811
e 796 812
e 796 813
e 796 814
e 796 815
e 796 816
e 796 817
e 796 818
e 796 819
e 796 820
e 796 821
e 796 822
e 796 823
e 796 824
e 796 825
e 796 826
e 796 827
e 796 828
e 796 829
e 796 830
e 796 831
e 796 832
e 796 833
e 834 835
e 834 836
e 834 837
e 834 838
e 834 839
e 834 840
e 834 841
e 834 842
e 834 843
e 834 844
e 834 845
e 834 846
e 834 847
e 834 848
e 834 849
e 834 850
e 834 851
e 834 852
e 834 853
e 834 854
e 834 855
e 834 856
e 834 857
e 834 858
e 834 859
e 834 860
e 834 861
e 834 862
e 834 863
e 864 865
e 864 866
e 864 867
e 864 868
e 864 869
e 864 870
e 864 871
e 864 872
e 864 873
e 864 874
e 864 875
e 864 876
e 864 877
e 864 878
e 864 879
e 864 880
e 864 881
e 864 882
e 864 883
e 864 884
e 864 885
e 864 886
e 864 887
e 864 888
e 864 889
e 864 890
e 891 892
e 891 893
e 891 894
e 891 895
e 891 896
e 891 897
e 891 898
e 891 899
e 891 900
e 891 901
e 891 902
e 891 903
e 891 904
e 891 905
e 891 906
e 891 907
e 891 908
e 891 909
e 891 910
e 891 911
e 891 912
e 891 913
e 891 914
e 891 915
e 891 916
e 891 917
e 891 918
e 891 919
e 891 920
e 891 921
e 891 922
